TCS_Benchmarks/redos_fix/snort1_output_distinct_4634_4633_73_0.smt2
(set-logic QF_S)
(declare-const x String)
(assert (str.in.re x (re.inter  (re.++ (re.*  (re.union  (str.to.re "\u{5f}") (re.union (re.range "\u{30}" "\u{39}") (re.union (re.range "\u{41}" "\u{5a}") (re.range "\u{61}" "\u{7a}")))) ) (re.* (re.comp  (str.to.re "\u{3e}")) ))  (re.++ (re.*  (re.union  (str.to.re "\u{5f}") (re.union (re.range "\u{30}" "\u{39}") (re.union (re.range "\u{41}" "\u{5a}") (re.range "\u{61}" "\u{7a}")))) ) (re.* (re.comp  (str.to.re "\u{3e}")) )) )))
(check-sat)
(get-model)