TCS_Benchmarks/redos_fix/snort1_output_distinct_4634_4633_73_0.txt
([_0-9A-Za-z]*)([^>]*)
([_0-9A-Za-z]*)([^>]*)